p tw 40 98
0 1
0 10
0 5
0 25
0 27
0 28
0 29
0 24
1 20
1 22
1 27
1 25
1 12
1 15
1 8
1 3
2 3
2 10
2 15
2 38
3 22
4 5
4 11
4 20
4 19
4 35
4 9
4 39
5 12
6 7
6 21
6 24
6 29
6 19
6 38
7 14
7 19
7 21
7 22
7 33
8 9
8 24
9 22
10 29
10 28
10 32
10 25
11 30
11 13
11 25
11 27
11 21
12 13
12 18
12 16
12 38
13 27
13 17
13 29
14 20
14 25
14 36
15 16
15 23
15 19
16 36
17 18
17 34
17 23
18 28
19 25
19 22
19 30
19 27
20 25
20 37
22 23
22 27
22 25
22 34
22 39
22 38
23 36
24 31
24 32
24 35
25 26
25 31
25 37
25 34
26 28
28 33
29 37
30 36
32 38
33 38
35 36
37 39
